NAME: random-76-29520
TYPE: TSP
COMMENT: size=76 seed=29520
DIMENSION: 154
EDGE_WEIGHT_TYPE: EUC_2D
NODE_COORD_SECTION
+0 640 826
-0 640 826
+1 231 879
-1 844 680
+2 316 656
-2 760 349
+3 930 900
-3 274 68
+4 676 211
-4 54 709
+5 932 249
-5 938 138
+6 434 722
-6 522 519
+7 160 947
-7 256 20
+8 931 393
-8 537 377
+9 355 617
-9 95 672
+10 916 852
-10 556 87
+11 96 585
-11 245 268
+12 530 986
-12 498 566
+13 867 475
-13 925 795
+14 913 714
-14 767 371
+15 305 549
-15 200 681
+16 645 6
-16 208 494
+17 794 641
-17 300 787
+18 387 935
-18 14 910
+19 41 454
-19 87 688
+20 61 980
-20 284 539
+21 230 552
-21 349 222
+22 79 150
-22 459 786
+23 33 943
-23 537 789
+24 212 113
-24 110 366
+25 453 76
-25 654 752
+26 801 35
-26 551 615
+27 808 475
-27 986 537
+28 363 782
-28 285 481
+29 588 320
-29 954 290
+30 358 705
-30 944 997
+31 329 769
-31 918 546
+32 140 909
-32 439 344
+33 901 929
-33 157 5
+34 856 555
-34 469 753
+35 60 779
-35 961 309
+36 851 98
-36 458 355
+37 226 380
-37 834 923
+38 560 168
-38 752 288
+39 500 625
-39 150 738
+40 508 712
-40 436 47
+41 221 681
-41 670 656
+42 377 216
-42 336 712
+43 920 924
-43 121 552
+44 910 444
-44 614 760
+45 101 743
-45 80 839
+46 748 162
-46 453 543
+47 159 836
-47 463 415
+48 419 102
-48 136 365
+49 492 54
-49 137 825
+50 194 737
-50 780 342
+51 377 420
-51 312 818
+52 589 806
-52 32 668
+53 117 526
-53 220 845
+54 21 208
-54 655 739
+55 915 801
-55 381 692
+56 20 129
-56 757 422
+57 290 347
-57 120 569
+58 1 157
-58 382 645
+59 426 398
-59 320 656
+60 366 540
-60 353 756
+61 747 172
-61 549 662
+62 516 602
-62 881 585
+63 797 350
-63 486 323
+64 451 890
-64 947 203
+65 111 439
-65 903 36
+66 289 112
-66 216 159
+67 616 134
-67 611 763
+68 324 411
-68 776 992
+69 309 147
-69 263 137
+70 445 142
-70 766 265
+71 92 14
-71 844 609
+72 133 493
-72 589 648
+73 99 783
-73 375 640
+74 341 248
-74 338 253
+75 769 258
-75 292 714
+76 98 507
-76 853 930
PRECEDENCE_SECTION
+0 -0
+1 -1
+2 -2
+3 -3
+4 -4
+5 -5
+6 -6
+7 -7
+8 -8
+9 -9
+10 -10
+11 -11
+12 -12
+13 -13
+14 -14
+15 -15
+16 -16
+17 -17
+18 -18
+19 -19
+20 -20
+21 -21
+22 -22
+23 -23
+24 -24
+25 -25
+26 -26
+27 -27
+28 -28
+29 -29
+30 -30
+31 -31
+32 -32
+33 -33
+34 -34
+35 -35
+36 -36
+37 -37
+38 -38
+39 -39
+40 -40
+41 -41
+42 -42
+43 -43
+44 -44
+45 -45
+46 -46
+47 -47
+48 -48
+49 -49
+50 -50
+51 -51
+52 -52
+53 -53
+54 -54
+55 -55
+56 -56
+57 -57
+58 -58
+59 -59
+60 -60
+61 -61
+62 -62
+63 -63
+64 -64
+65 -65
+66 -66
+67 -67
+68 -68
+69 -69
+70 -70
+71 -71
+72 -72
+73 -73
+74 -74
+75 -75
+76 -76
EOF
